(set-info :origin "SVCOMP13 benchmarks generated by Arie Gurfinkel")
(set-info :status sat)
(set-logic HORN)
(declare-fun cp-rel-entry () Bool)
(declare-fun cp-rel-bb2.i.i43.i.i () Bool)
(declare-fun cp-rel-bb1.i.i (Real Real Real Real) Bool)
(assert |cp-rel-entry|)
(assert (forall ((?A Real) (?B Real) (?C Real) (?D Real) (?E Bool) )(let (($x51222 (and |cp-rel-entry| (<= ?D 0.0) (>= ?C 1.0) (<= ?C 1.0) (>= ?B 0.0) (<= ?B 0.0) (>= ?A 0.0) (<= ?A 0.0) (= ?E true) (>= ?D 0.0))))
(=> $x51222 (|cp-rel-bb1.i.i| ?A ?B ?C ?D))))
)
(assert (forall ((?A Real) (?B Real) (?C Real) (?D Real) (?E Real) (?F Real) (?G Real) (?H Real) (?I Bool) (?J Bool) (?K Bool) (?L Bool) (?M Bool) (?N Bool) (?O Real) (?P Real) (?Q Bool) (?R Bool) (?S Bool) (?T Bool) (?U Bool) (?V Bool) (?W Real) (?X Real) (?Y Bool) (?Z Bool) (?A1 Bool) (?B1 Bool) (?C1 Bool) (?D1 Bool) (?E1 Bool) (?F1 Bool) (?G1 Bool) (?H1 Bool) (?I1 Bool) (?J1 Bool) (?K1 Bool) (?L1 Bool) (?M1 Real) (?N1 Real) (?O1 Real) (?P1 Bool) (?Q1 Bool) (?R1 Real) (?S1 Bool) (?T1 Bool) (?U1 Bool) (?V1 Bool) (?W1 Bool) (?X1 Real) (?Y1 Bool) (?Z1 Real) (?A2 Real) (?B2 Bool) (?C2 Bool) (?D2 Real) (?E2 Bool) (?F2 Bool) (?G2 Bool) (?H2 Bool) (?I2 Bool) )(let (($x322063 (|cp-rel-bb1.i.i| ?E ?F ?G ?H)))
(let (($x248455 (or (not ?I) (and ?J ?K (not ?L)))))
(let (($x595394 (or (not ?I) ?K)))
(let (($x361692 (not ?M)))
(let (($x485810 (or $x361692 (and ?I ?N (<= ?O ?P) (>= ?O ?P)) (and ?J ?Q ?L (<= ?O ?C) (>= ?O ?C)))))
(let (($x570320 (or $x361692 (and ?N (not ?Q)) (and ?Q (not ?N)))))
(let (($x931472 (or (not ?R) (and ?M ?S (not ?T)))))
(let (($x866766 (or (not ?R) ?S)))
(let (($x309790 (not ?U)))
(let (($x543551 (or $x309790 (and ?R ?V (<= ?W ?X) (>= ?W ?X)) (and ?M ?Y ?T (<= ?W ?B) (>= ?W ?B)))))
(let (($x851349 (or $x309790 (and ?V (not ?Y)) (and ?Y (not ?V)))))
(let (($x900998 (or (not ?Z) (and ?U ?A1 ?B1))))
(let (($x384775 (or (not ?Z) ?A1)))
(let (($x249651 (or (not ?C1) (and ?U ?D1 (not ?B1)))))
(let (($x420333 (or (not ?C1) ?D1)))
(let (($x506827 (or (not ?E1) (and ?Z ?F1 ?G1))))
(let (($x232024 (or (not ?E1) ?F1)))
(let (($x64004 (or (not ?H1) (and ?C1 ?I1 ?J1))))
(let (($x329077 (or (not ?H1) ?I1)))
(let (($x570516 (>= ?M1 ?R1)))
(let (($x30142 (<= ?M1 ?R1)))
(let (($x636737 (and ?C1 ?S1 (not ?J1) $x30142 $x570516 (<= ?N1 0.0) (>= ?N1 0.0))))
(let (($x387962 (>= ?M1 ?O)))
(let (($x899435 (<= ?M1 ?O)))
(let (($x927574 (not ?K1)))
(let (($x701668 (or $x927574 (and ?E1 ?L1 $x899435 $x387962 (<= ?N1 ?O1) (>= ?N1 ?O1)) (and ?Z ?P1 (not ?G1) $x899435 $x387962 (<= ?N1 ?A) (>= ?N1 ?A)) (and ?H1 ?Q1 $x30142 $x570516 (<= ?N1 ?A) (>= ?N1 ?A)) $x636737)))
(let (($x405251 (or $x927574 (and ?L1 (not ?P1) (not ?Q1) (not ?S1)) (and ?P1 (not ?L1) (not ?Q1) (not ?S1)) (and ?Q1 (not ?L1) (not ?P1) (not ?S1)) (and ?S1 (not ?L1) (not ?P1) (not ?Q1)))))
(let (($x298787 (or (not ?T1) (and ?K1 ?U1 (not ?V1)))))
(let (($x159601 (or (not ?T1) ?U1)))
(let (($x262422 (and ?K1 ?V1 (<= ?E ?N1) (>= ?E ?N1) (<= ?F ?W) (>= ?F ?W) (<= ?G ?M1) (>= ?G ?M1) (<= ?H 0.0) (>= ?H 0.0))))
(let (($x347193 (and ?T1 ?W1 (<= ?E ?N1) (>= ?E ?N1) (<= ?F ?W) (>= ?F ?W) (<= ?G ?M1) (>= ?G ?M1) (<= ?H 1.0) (>= ?H 1.0))))
(let (($x865729 (= ?L (= ?X1 0.0))))
(let (($x864767 (= ?Z1 (ite ?Y1 1.0 0.0))))
(let (($x414835 (= ?T (= ?A2 0.0))))
(let (($x245283 (= ?X (ite ?B2 1.0 0.0))))
(let (($x625585 (= ?G1 (not (<= ?O 1.0)))))
(let (($x420617 (= ?C2 (not (<= ?O 0.0)))))
(let (($x254421 (= ?D2 (+ (~ 1.0) ?O))))
(let (($x418050 (= ?R1 (ite ?C2 ?D2 ?O))))
(let (($x7011 (= ?W 0.0)))
(let (($x124217 (= ?E2 $x7011)))
(let (($x486795 (= ?F2 (= ?R1 0.0))))
(let (($x332355 (= ?J1 (and ?E2 ?F2))))
(let (($x427807 (= ?G2 $x7011)))
(let (($x220115 (= ?H2 $x7011)))
(let (($x279103 (= ?I2 (= ?N1 0.0))))
(let (($x132445 (= ?V1 (or ?I2 ?H2))))
(let (($x463487 (and (|cp-rel-bb1.i.i| ?A ?B ?C ?D) $x132445 $x279103 $x220115 (= ?O1 (ite ?G2 1.0 ?A)) $x427807 $x332355 $x486795 $x124217 $x418050 $x254421 $x420617 $x625585 (= ?B1 (= ?A 0.0)) $x245283 (= ?B2 (= ?B 0.0)) $x414835 (= ?P (+ ?Z1 ?C)) $x864767 (= ?Y1 (not (<= 2.0 ?C))) $x865729 (or $x347193 $x262422) $x159601 $x298787 $x405251 $x701668 $x329077 $x64004 $x232024 $x506827 $x420333 $x249651 $x384775 $x900998 $x851349 $x543551 $x866766 $x931472 $x570320 $x485810 $x595394 $x248455 (= ?W1 (= ?D 0.0)))))
(=> $x463487 $x322063))))))))))))))))))))))))))))))))))))))))))))))))))
)
(assert (forall ((?A Real) (?B Real) (?C Real) (?D Real) (?E Bool) (?F Bool) (?G Bool) (?H Bool) (?I Bool) (?J Bool) (?K Real) (?L Real) (?M Bool) (?N Bool) (?O Bool) (?P Bool) (?Q Bool) (?R Bool) (?S Real) (?T Real) (?U Bool) (?V Bool) (?W Bool) (?X Bool) (?Y Bool) (?Z Bool) (?A1 Bool) (?B1 Bool) (?C1 Bool) (?D1 Bool) (?E1 Bool) (?F1 Bool) (?G1 Bool) (?H1 Bool) (?I1 Real) (?J1 Real) (?K1 Real) (?L1 Bool) (?M1 Bool) (?N1 Real) (?O1 Bool) (?P1 Bool) (?Q1 Bool) (?R1 Bool) (?S1 Bool) (?T1 Real) (?U1 Bool) (?V1 Real) (?W1 Real) (?X1 Bool) (?Y1 Bool) (?Z1 Real) (?A2 Bool) (?B2 Bool) (?C2 Bool) (?D2 Bool) (?E2 Bool) )(let (($x248455 (or (not ?E) (and ?F ?G (not ?H)))))
(let (($x595394 (or (not ?E) ?G)))
(let (($x361692 (not ?I)))
(let (($x347904 (or $x361692 (and ?E ?J (<= ?K ?L) (>= ?K ?L)) (and ?F ?M ?H (<= ?K ?C) (>= ?K ?C)))))
(let (($x570320 (or $x361692 (and ?J (not ?M)) (and ?M (not ?J)))))
(let (($x931472 (or (not ?N) (and ?I ?O (not ?P)))))
(let (($x866766 (or (not ?N) ?O)))
(let (($x309790 (not ?Q)))
(let (($x153223 (or $x309790 (and ?N ?R (<= ?S ?T) (>= ?S ?T)) (and ?I ?U ?P (<= ?S ?B) (>= ?S ?B)))))
(let (($x851349 (or $x309790 (and ?R (not ?U)) (and ?U (not ?R)))))
(let (($x900998 (or (not ?V) (and ?Q ?W ?X))))
(let (($x384775 (or (not ?V) ?W)))
(let (($x249651 (or (not ?Y) (and ?Q ?Z (not ?X)))))
(let (($x420333 (or (not ?Y) ?Z)))
(let (($x506827 (or (not ?A1) (and ?V ?B1 ?C1))))
(let (($x232024 (or (not ?A1) ?B1)))
(let (($x64004 (or (not ?D1) (and ?Y ?E1 ?F1))))
(let (($x329077 (or (not ?D1) ?E1)))
(let (($x570516 (>= ?I1 ?N1)))
(let (($x30142 (<= ?I1 ?N1)))
(let (($x636737 (and ?Y ?O1 (not ?F1) $x30142 $x570516 (<= ?J1 0.0) (>= ?J1 0.0))))
(let (($x387962 (>= ?I1 ?K)))
(let (($x899435 (<= ?I1 ?K)))
(let (($x927574 (not ?G1)))
(let (($x508592 (or $x927574 (and ?A1 ?H1 $x899435 $x387962 (<= ?J1 ?K1) (>= ?J1 ?K1)) (and ?V ?L1 (not ?C1) $x899435 $x387962 (<= ?J1 ?A) (>= ?J1 ?A)) (and ?D1 ?M1 $x30142 $x570516 (<= ?J1 ?A) (>= ?J1 ?A)) $x636737)))
(let (($x405251 (or $x927574 (and ?H1 (not ?L1) (not ?M1) (not ?O1)) (and ?L1 (not ?H1) (not ?M1) (not ?O1)) (and ?M1 (not ?H1) (not ?L1) (not ?O1)) (and ?O1 (not ?H1) (not ?L1) (not ?M1)))))
(let (($x298787 (or (not ?P1) (and ?G1 ?Q1 (not ?R1)))))
(let (($x159601 (or (not ?P1) ?Q1)))
(let (($x865729 (= ?H (= ?T1 0.0))))
(let (($x864767 (= ?V1 (ite ?U1 1.0 0.0))))
(let (($x414835 (= ?P (= ?W1 0.0))))
(let (($x245283 (= ?T (ite ?X1 1.0 0.0))))
(let (($x625585 (= ?C1 (not (<= ?K 1.0)))))
(let (($x420617 (= ?Y1 (not (<= ?K 0.0)))))
(let (($x254421 (= ?Z1 (+ (~ 1.0) ?K))))
(let (($x418050 (= ?N1 (ite ?Y1 ?Z1 ?K))))
(let (($x7011 (= ?S 0.0)))
(let (($x124217 (= ?A2 $x7011)))
(let (($x486795 (= ?B2 (= ?N1 0.0))))
(let (($x332355 (= ?F1 (and ?A2 ?B2))))
(let (($x427807 (= ?C2 $x7011)))
(let (($x220115 (= ?D2 $x7011)))
(let (($x279103 (= ?E2 (= ?J1 0.0))))
(let (($x132445 (= ?R1 (or ?E2 ?D2))))
(let (($x322063 (|cp-rel-bb1.i.i| ?A ?B ?C ?D)))
(let (($x357263 (and $x322063 $x132445 $x279103 $x220115 (= ?K1 (ite ?C2 1.0 ?A)) $x427807 $x332355 $x486795 $x124217 $x418050 $x254421 $x420617 $x625585 (= ?X (= ?A 0.0)) $x245283 (= ?X1 (= ?B 0.0)) $x414835 (= ?L (+ ?V1 ?C)) $x864767 (= ?U1 (not (<= 2.0 ?C))) $x865729 (not (= ?S1 true)) (= ?P1 true) $x159601 $x298787 $x405251 $x508592 $x329077 $x64004 $x232024 $x506827 $x420333 $x249651 $x384775 $x900998 $x851349 $x153223 $x866766 $x931472 $x570320 $x347904 $x595394 $x248455 (= ?S1 (= ?D 0.0)))))
(=> $x357263 |cp-rel-bb2.i.i43.i.i|))))))))))))))))))))))))))))))))))))))))))))))))
)
(assert (not cp-rel-bb2.i.i43.i.i))
(check-sat)
